&bands
  outdir = './out/'
  prefix = 'aiida'
  filband='bands.dat'
/
